100 10
469 387
412 818
567 331
320 599
295 626
379 151
540 574
632 306
354 851
777 581
470 768
198 272
382 834
696 268
400 930
607 739
239 323
444 496
340 513
711 256
764 710
447 566
599 803
102 294
352 652
204 524
380 703
420 655
530 575
222 457
465 829
337 314
678 285
312 754
546 461
543 561
477 666
321 783
363 123
374 830
863 824
787 868
471 733
260 576
763 862
582 334
360 854
412 376
202 257
601 584
586 490
568 427
782 269
520 847
323 239
259 602
77 264
372 923
105 416
548 622
278 431
193 856
50 279
566 269
131 836
219 737
338 621
500 397
135 516
111 595
273 689
445 704
734 517
470 860
492 964
791 915
380 359
568 900
511 933
796 552
272 717
257 959
351 507
330 545
580 800
405 281
472 584
812 261
409 521
710 247
289 527
217 751
812 894
499 261
385 764
513 905
359 631
859 639
196 567
745 792
